networks/zoo_60_870/zoo_60_870.txt
Number of groups: 35
Flow 3: {3 4} {4 34} 
Flow 84: {22 23} {23 27} 
Flow 90: {4 3} {3 33} 
Flow 112: {23 11} {11 26} {26 56} 
Flow 135: {5 1} {1 20} {20 50} 
Flow 158: {6 7} {7 14} {14 44} 
Flow 230: {8 7} {7 28} {28 58} 
Flow 241: {9 11} {11 10} {10 40} 
Flow 263: {7 1} {1 2} {2 32} 
Flow 287: {10 11} {11 27} {27 57} 
Flow 335: {30 21} {21 17} {17 47} 
Flow 336: {21 1} {1 18} {18 48} 
Flow 348: {12 30} {30 60} 
Flow 368: {13 1} {1 21} {21 51} 
Flow 385: {14 7} {7 8} {8 38} 
Flow 412: {15 7} {7 6} {6 36} 
Flow 463: {16 22} {22 3} {3 2} {2 29} {29 59} 
Flow 476: {17 21} {21 30} {30 12} {12 42} 
Flow 511: {18 1} {1 19} {19 49} 
Flow 523: {19 1} {1 31} 
Flow 544: {1 7} {7 11} {11 23} {23 53} 
Flow 564: {20 1} {1 13} {13 43} 
Flow 572: {2 3} {3 22} {22 52} 
Flow 676: {24 11} {11 9} {9 39} 
Flow 691: {24 25} {25 55} 
Flow 692: {24 26} 
Flow 703: {25 11} {11 7} {7 37} 
Flow 720: {25 24} 
Flow 749: {26 24} {24 54} 
Flow 750: {26 11} {11 25} 
Flow 765: {27 11} {11 41} 
Flow 770: {27 23} {23 22} {22 16} {16 46} 
Flow 798: {28 7} {7 15} {15 45} 
Flow 807: {11 24} 
Flow 817: {29 2} {2 1} {1 5} {5 35} 
Time taken running everything: 7 seconds
