networks/zoo_60_870/zoo_60_870.sol
<?xml version = "1.0" encoding="UTF-8" standalone="yes"?>
<CPLEXSolution version="1.2">
 <header
   problemName="networks/zoo_60_870/zoo_60_870.lp"
   solutionName="incumbent"
   solutionIndex="-1"
   objectiveValue="35"
   solutionTypeValue="3"
   solutionTypeString="primal"
   solutionStatusValue="101"
   solutionStatusString="integer optimal solution"
   solutionMethodString="mip"
   primalFeasible="1"
   dualFeasible="1"
   MIPNodes="0"
   MIPIterations="5240"
   writeLevel="3"/>
 <quality
   epInt="1.0000000000000001e-05"
   epRHS="9.9999999999999995e-07"
   maxIntInfeas="0"
   maxPrimalInfeas="1.7763568394002505e-15"
   maxX="4"
   maxSlack="10"/>
 <variables>
  <variable name="Y(3,4)" index="123" value="1"/>
  <variable name="Y(84,23)" index="5002" value="1"/>
  <variable name="Y(90,3)" index="5342" value="1"/>
  <variable name="Y(112,26)" index="6685" value="1"/>
  <variable name="Y(135,20)" index="8059" value="1"/>
  <variable name="Y(158,14)" index="9433" value="1"/>
  <variable name="Y(230,28)" index="13767" value="1"/>
  <variable name="Y(241,10)" index="14409" value="1"/>
  <variable name="Y(263,2)" index="15721" value="1"/>
  <variable name="Y(287,27)" index="17186" value="1"/>
  <variable name="Y(335,17)" index="20056" value="1"/>
  <variable name="Y(336,18)" index="20117" value="1"/>
  <variable name="Y(348,30)" index="20849" value="1"/>
  <variable name="Y(368,21)" index="22040" value="1"/>
  <variable name="Y(385,8)" index="23047" value="1"/>
  <variable name="Y(412,6)" index="24665" value="1"/>
  <variable name="Y(463,29)" index="27748" value="1"/>
  <variable name="Y(476,12)" index="28511" value="1"/>
  <variable name="Y(511,19)" index="30618" value="1"/>
  <variable name="Y(523,1)" index="31320" value="1"/>
  <variable name="Y(544,23)" index="32602" value="1"/>
  <variable name="Y(564,13)" index="33792" value="1"/>
  <variable name="Y(572,22)" index="34281" value="1"/>
  <variable name="Y(676,9)" index="40508" value="1"/>
  <variable name="Y(691,25)" index="41424" value="1"/>
  <variable name="Y(692,24)" index="41483" value="1"/>
  <variable name="Y(703,7)" index="42126" value="1"/>
  <variable name="Y(720,25)" index="43164" value="1"/>
  <variable name="Y(749,24)" index="44903" value="1"/>
  <variable name="Y(750,11)" index="44950" value="1"/>
  <variable name="Y(765,11)" index="45850" value="1"/>
  <variable name="Y(770,16)" index="46155" value="1"/>
  <variable name="Y(798,15)" index="47834" value="1"/>
  <variable name="Y(807,11)" index="48370" value="1"/>
  <variable name="Y(817,5)" index="48964" value="1"/>
  <variable name="X(1,2,263)" index="52462" value="1"/>
  <variable name="X(1,5,817)" index="53886" value="1"/>
  <variable name="X(1,7,544)" index="54483" value="1"/>
  <variable name="X(1,13,564)" index="55373" value="1"/>
  <variable name="X(1,18,336)" index="56015" value="1"/>
  <variable name="X(1,19,511)" index="57060" value="1"/>
  <variable name="X(1,20,135)" index="57554" value="1"/>
  <variable name="X(1,21,368)" index="58657" value="1"/>
  <variable name="X(1,31,523)" index="59682" value="1"/>
  <variable name="X(2,1,817)" index="60846" value="1"/>
  <variable name="X(2,3,572)" index="61471" value="1"/>
  <variable name="X(2,29,463)" index="62232" value="1"/>
  <variable name="X(2,32,263)" index="62902" value="1"/>
  <variable name="X(3,2,463)" index="63972" value="1"/>
  <variable name="X(3,4,3)" index="64382" value="1"/>
  <variable name="X(3,22,572)" index="65821" value="1"/>
  <variable name="X(3,33,90)" index="66209" value="1"/>
  <variable name="X(4,3,90)" index="67079" value="1"/>
  <variable name="X(4,34,3)" index="67862" value="1"/>
  <variable name="X(5,1,135)" index="68864" value="1"/>
  <variable name="X(5,35,817)" index="70416" value="1"/>
  <variable name="X(6,7,158)" index="70627" value="1"/>
  <variable name="X(6,36,412)" index="71751" value="1"/>
  <variable name="X(7,1,263)" index="72472" value="1"/>
  <variable name="X(7,6,412)" index="73491" value="1"/>
  <variable name="X(7,8,385)" index="74334" value="1"/>
  <variable name="X(7,11,544)" index="75363" value="1"/>
  <variable name="X(7,14,158)" index="75847" value="1"/>
  <variable name="X(7,15,798)" index="77357" value="1"/>
  <variable name="X(7,28,230)" index="77659" value="1"/>
  <variable name="X(7,37,703)" index="79002" value="1"/>
  <variable name="X(8,7,230)" index="79399" value="1"/>
  <variable name="X(8,38,385)" index="80424" value="1"/>
  <variable name="X(9,11,241)" index="81150" value="1"/>
  <variable name="X(9,39,676)" index="82455" value="1"/>
  <variable name="X(10,11,287)" index="82936" value="1"/>
  <variable name="X(10,40,241)" index="83760" value="1"/>
  <variable name="X(11,7,703)" index="85092" value="1"/>
  <variable name="X(11,9,676)" index="85935" value="1"/>
  <variable name="X(11,10,241)" index="86370" value="1"/>
  <variable name="X(11,23,544)" index="87543" value="1"/>
  <variable name="X(11,24,807)" index="88676" value="1"/>
  <variable name="X(11,25,750)" index="89489" value="1"/>
  <variable name="X(11,26,112)" index="89721" value="1"/>
  <variable name="X(11,27,287)" index="90766" value="1"/>
  <variable name="X(11,41,765)" index="92114" value="1"/>
  <variable name="X(12,30,348)" index="92567" value="1"/>
  <variable name="X(12,42,476)" index="93565" value="1"/>
  <variable name="X(13,1,368)" index="94327" value="1"/>
  <variable name="X(13,43,564)" index="95393" value="1"/>
  <variable name="X(14,7,385)" index="96084" value="1"/>
  <variable name="X(14,44,158)" index="96727" value="1"/>
  <variable name="X(15,7,412)" index="97851" value="1"/>
  <variable name="X(15,45,798)" index="99107" value="1"/>
  <variable name="X(16,22,463)" index="99642" value="1"/>
  <variable name="X(16,46,770)" index="100819" value="1"/>
  <variable name="X(17,21,476)" index="101395" value="1"/>
  <variable name="X(17,47,335)" index="102124" value="1"/>
  <variable name="X(18,1,511)" index="103170" value="1"/>
  <variable name="X(18,48,336)" index="103865" value="1"/>
  <variable name="X(19,1,523)" index="104922" value="1"/>
  <variable name="X(19,49,511)" index="105780" value="1"/>
  <variable name="X(20,1,564)" index="106703" value="1"/>
  <variable name="X(20,50,135)" index="107144" value="1"/>
  <variable name="X(21,1,336)" index="108215" value="1"/>
  <variable name="X(21,17,335)" index="109084" value="1"/>
  <variable name="X(21,30,476)" index="110095" value="1"/>
  <variable name="X(21,51,368)" index="110857" value="1"/>
  <variable name="X(22,3,463)" index="111822" value="1"/>
  <variable name="X(22,16,770)" index="112999" value="1"/>
  <variable name="X(22,23,84)" index="113183" value="1"/>
  <variable name="X(22,52,572)" index="114541" value="1"/>
  <variable name="X(23,11,112)" index="114951" value="1"/>
  <variable name="X(23,22,770)" index="116479" value="1"/>
  <variable name="X(23,27,84)" index="116663" value="1"/>
  <variable name="X(23,53,544)" index="117993" value="1"/>
  <variable name="X(24,11,676)" index="118995" value="1"/>
  <variable name="X(24,25,691)" index="119880" value="1"/>
  <variable name="X(24,26,692)" index="120751" value="1"/>
  <variable name="X(24,54,749)" index="121678" value="1"/>
  <variable name="X(25,11,703)" index="122502" value="1"/>
  <variable name="X(25,24,720)" index="123389" value="1"/>
  <variable name="X(25,55,691)" index="124230" value="1"/>
  <variable name="X(26,11,750)" index="125159" value="1"/>
  <variable name="X(26,24,749)" index="126028" value="1"/>
  <variable name="X(26,56,112)" index="126261" value="1"/>
  <variable name="X(27,11,765)" index="127784" value="1"/>
  <variable name="X(27,23,770)" index="128659" value="1"/>
  <variable name="X(27,57,287)" index="129046" value="1"/>
  <variable name="X(28,7,798)" index="130427" value="1"/>
  <variable name="X(28,58,230)" index="130729" value="1"/>
  <variable name="X(29,2,817)" index="132186" value="1"/>
  <variable name="X(29,59,463)" index="132702" value="1"/>
  <variable name="X(30,12,476)" index="133585" value="1"/>
  <variable name="X(30,21,335)" index="134314" value="1"/>
  <variable name="X(30,60,348)" index="135197" value="1"/>
  <variable name="C(3,4)" index="135728" value="1"/>
  <variable name="C(84,23)" index="136024" value="1"/>
  <variable name="C(90,3)" index="136047" value="1"/>
  <variable name="C(112,11)" index="136164" value="1"/>
  <variable name="C(112,26)" index="136165" value="2"/>
  <variable name="C(135,1)" index="136259" value="1"/>
  <variable name="C(135,20)" index="136260" value="2"/>
  <variable name="C(158,7)" index="136355" value="1"/>
  <variable name="C(158,14)" index="136356" value="2"/>
  <variable name="C(230,7)" index="136623" value="1"/>
  <variable name="C(230,28)" index="136624" value="2"/>
  <variable name="C(241,11)" index="136672" value="1"/>
  <variable name="C(241,10)" index="136673" value="2"/>
  <variable name="C(263,1)" index="136769" value="1"/>
  <variable name="C(263,2)" index="136770" value="2"/>
  <variable name="C(287,11)" index="136871" value="1"/>
  <variable name="C(287,27)" index="136872" value="2"/>
  <variable name="C(335,21)" index="137079" value="1"/>
  <variable name="C(335,17)" index="137080" value="2"/>
  <variable name="C(336,1)" index="137084" value="1"/>
  <variable name="C(336,18)" index="137085" value="2"/>
  <variable name="C(348,30)" index="137154" value="1"/>
  <variable name="C(368,1)" index="137230" value="1"/>
  <variable name="C(368,21)" index="137231" value="2"/>
  <variable name="C(385,7)" index="137302" value="1"/>
  <variable name="C(385,8)" index="137303" value="2"/>
  <variable name="C(412,7)" index="137416" value="1"/>
  <variable name="C(412,6)" index="137417" value="2"/>
  <variable name="C(463,22)" index="137653" value="1"/>
  <variable name="C(463,3)" index="137654" value="2"/>
  <variable name="C(463,2)" index="137655" value="3"/>
  <variable name="C(463,29)" index="137656" value="4"/>
  <variable name="C(476,21)" index="137718" value="1"/>
  <variable name="C(476,30)" index="137719" value="2"/>
  <variable name="C(476,12)" index="137720" value="3"/>
  <variable name="C(511,1)" index="137874" value="1"/>
  <variable name="C(511,19)" index="137875" value="2"/>
  <variable name="C(523,1)" index="137925" value="1"/>
  <variable name="C(544,7)" index="138008" value="1"/>
  <variable name="C(544,11)" index="138009" value="2"/>
  <variable name="C(544,23)" index="138010" value="3"/>
  <variable name="C(564,1)" index="138091" value="1"/>
  <variable name="C(564,13)" index="138092" value="2"/>
  <variable name="C(572,3)" index="138123" value="1"/>
  <variable name="C(572,22)" index="138124" value="2"/>
  <variable name="C(676,11)" index="138552" value="1"/>
  <variable name="C(676,9)" index="138553" value="2"/>
  <variable name="C(691,25)" index="138618" value="1"/>
  <variable name="C(703,11)" index="138670" value="1"/>
  <variable name="C(703,7)" index="138671" value="2"/>
  <variable name="C(749,24)" index="138869" value="1"/>
  <variable name="C(750,11)" index="138871" value="1"/>
  <variable name="C(765,11)" index="138933" value="1"/>
  <variable name="C(770,23)" index="138955" value="1"/>
  <variable name="C(770,22)" index="138956" value="1.9999999999999982"/>
  <variable name="C(770,16)" index="138957" value="2.9999999999999982"/>
  <variable name="C(798,7)" index="139069" value="1"/>
  <variable name="C(798,15)" index="139070" value="2"/>
  <variable name="C(817,2)" index="139146" value="1"/>
  <variable name="C(817,1)" index="139147" value="1.9999999999999982"/>
  <variable name="C(817,5)" index="139148" value="2.9999999999999982"/>
 </variables>
</CPLEXSolution>
